p cnf 19 11
a 1 0
e 2 0
a 3 4 0
e 5 0
a 6 0
e 7 8 9 10 11 0
a 12 13 14 15 0
e 16 17 0
a 18 0
e 19 0
16 19 -17 -11 0
-1 6 -5 13 0
-10 -15 2 0
1 18 -17 -2 -11 0
3 -2 1 -4 -10 0
-5 -1 -7 -6 0
9 13 -8 -2 0
-16 10 0
-7 -4 14 0
-17 11 2 -13 4 0
8 -6 12 14 0
